48
100
70	1
68	4
67	3
66	2
65	2
64	1
63	2
62	1
61	1
60	1
59	4
58	4
57	2
56	1
55	1
54	3
53	3
52	5
49	2
47	1
46	1
45	2
44	1
41	3
40	2
39	2
37	1
36	2
35	3
34	3
33	2
32	1
30	5
29	1
27	1
26	1
25	2
24	3
23	1
22	2
21	2
18	3
17	1
16	3
15	2
14	3
13	1
10	2
